139136
65, 52, 5, 30, 29, 55, 97, 8, 106, 9, 92, 94, 12, 93, 89, 80, 57, 83, 34, 74, 102, 24, 76, 58, 1, 87, 28, 27, 10, 59, 66, 44, 43, 79, 91, 60, 96, 78, 3, 23, 70, 101, 105, 38, 104, 11, 41, 67, 95, 54, 71, 36, 85, 48, 73, 84, 53, 63, 32, 7, 18, 49, 37, 39, 33, 2, 25, 45, 72, 82, 51, 100, 35, 75, 15, 4, 103, 61, 47, 14, 26, 50, 68, 99, 19, 81, 42, 98, 31, 13, 56, 20, 16, 64, 90, 77, 46, 86, 62, 22, 21, 17, 40, 6, 69, 88
